import Types.dzn;

interface IPositionSensor
{
    in void getCurrentPosition(PositionOut posInM);
    in void getLastEndstopPosition(PositionOut posInM);
   
    behavior {
        on getCurrentPosition, getLastEndstopPosition: {}
    }
}